0 0
0 0
0 0
0 0
0 0
0 0
0 0
0 64 14 75 92 90 96 94 88 26 12 11 23 27 7 100 8 3 16 68 60 56 71 70 74 73 20 21 4 6 10 5 9 2 1 97 89 17 99 22 24 72 61 78 32 58 31 40 34 42 18 91 95 98 93 15 13 83 65 51 52 66 59 53 41 36 44 48 49 45 38 29 87 81 25 80 57 55 69 77 76 62 46 54 63 79 35 43 37 33 47 39 67 30 28 50 85 86 84 82 19 0
0 0
0 0
0 0
0 0
